CMD:
./solvers/bin/cadical --plain --no-reduce -t 1600 ./data/cnfs//6s320rb0/6s320rb0.11.cnf

c --- [ banner ] -------------------------------------------------------------
c 
c CaDiCaL SAT Solver
c Copyright (c) 2016-2024
c A. Biere, M. Fleury, N. Froleyks, K. Fazekas, F. Pollitt, T. Faller
c JKU Linz, University of Freiburg, TU Wien
c 
c Version 2.1.3 5296d3d2a9bf48c154ab2acb5e44625776d821bf
c g++ (Gentoo 12.3.1_p20230526 p2) 12.3.1 20230526 -Wall -Wextra -O3 -DNDEBUG
c Sat Aug 9 07:26:21 PDT 2025 Linux cedar2.int.cedar.computecanada.ca 5.14.0-362.24.2.el9_3.x86_64 x86_64
c 
c --- [ limit ] --------------------------------------------------------------
c 
c setting time limit to 1600 seconds real time (due to '-t 1600')
c 
c --- [ parsing input ] ------------------------------------------------------
c 
c reading DIMACS file from './data/cnfs//6s320rb0/6s320rb0.11.cnf'
c opening file to read './data/cnfs//6s320rb0/6s320rb0.11.cnf'
c found 'p cnf 364969 1092694' header
c parsed 1092694 clauses in 0.17 seconds process time
c 
c --- [ options ] ------------------------------------------------------------
c 
c   --compact=false                (different from default 'true')
c   --decompose=false              (different from default 'true')
c   --deduplicate=false            (different from default 'true')
c   --elim=false                   (different from default 'true')
c   --probe=false                  (different from default 'true')
c   --reduce=false                 (different from default 'true')
c   --subsume=false                (different from default 'true')
c   --ternary=false                (different from default 'true')
c   --transred=false               (different from default 'true')
c   --vivify=false                 (different from default 'true')
c 
c --- [ solving ] ------------------------------------------------------------
c 
c time measured in process time since initialization
c 
c  seconds   reductions  redundant   irredundant
c          MB    restarts       trail        variables
c           level   conflicts       glue           remaining
c 
c *  0.17 172  0 0   0    0    0  0% 0 1084231 360745 99%
c {  0.22 176  0 0   0    0    0  0% 0 1084231 360745 99%
c i  0.23 176 37 0   0   15   14  3% 3 1084231 360740 99%
c i  0.23 176 36 0   0   20   18  3% 3 1084231 360738 99%
c i  0.23 176 25 0   4   84   71  3% 3 1084231 360737 99%
c i  0.30 177 41 0  27  390  352  7% 3 1084231 360735 99%
c i  0.30 177 41 0  27  391  352  7% 3 1084231 360733 99%
c i  0.30 177 41 0  27  396  356  7% 3 1084231 360732 99%
c i  0.35 177 45 0  38  494  448  8% 4 1084231 360448 99%
c i  0.35 177 45 0  38  499  451  8% 4 1084231 360335 99%
c i  0.38 177 48 0  39  528  474  8% 3 1084231 360333 99%
c i  0.38 177 48 0  39  529  474  8% 3 1084231 360332 99%
c i  0.41 177 49 0  41  551  490  9% 4 1084231 360179 99%
c i  0.42 178 46 0  42  594  527  9% 3 1084231 360009 99%
c i  0.42 178 46 0  42  596  528  9% 3 1084231 359977 99%
c i  0.43 178 46 0  42  597  528  9% 3 1084231 359973 99%
c i  0.43 178 46 0  42  600  530  9% 3 1084231 359967 99%
c i  0.43 178 45 0  42  606  534  8% 3 1084231 356737 98%
c i  0.43 178 45 0  42  608  535  8% 3 1084231 356736 98%
c i  0.43 178 45 0  42  609  535  8% 3 1084231 356692 98%
c 
c  seconds   reductions  redundant   irredundant
c          MB    restarts       trail        variables
c           level   conflicts       glue           remaining
c 
c i  0.43 178 45 0  42  610  535  8% 3 1084231 356688 98%
c i  0.43 178 45 0  42  612  536  8% 3 1084231 355945 98%
c i  0.43 178 45 0  42  614  537  8% 3 1084231 355943 98%
c i  0.43 178 44 0  42  620  541  8% 3 1084231 355929 98%
c i  0.44 178 44 0  42  634  550  9% 3 1084231 354490 97%
c i  0.45 178 44 0  42  647  562  9% 3 1084231 354176 97%
c i  0.49 178 46 0  47  705  612 10% 4 1084231 350320 96%
c i  0.52 178 45 0  61  750  652 10% 4 1084231 350319 96%
c i  0.52 178 45 0  62  754  655 10% 4 1084231 350318 96%
c i  0.52 178 44 0  63  787  676 10% 4 1084231 350301 96%
c i  0.54 178 42 0  66  847  731 10% 4 1084231 350300 96%
c i  0.54 178 42 0  66  860  739 10% 3 1084231 350288 96%
c i  0.55 178 42 0  66  876  752 10% 3 1084231 350287 96%
c i  0.57 178 40 0  66  907  779 10% 3 1084231 350262 96%
c i  0.57 178 40 0  66  913  783 10% 3 1084231 350261 96%
c i  0.57 178 40 0  66  916  785 10% 3 1084231 350145 96%
c i  0.57 178 40 0  66  921  787 10% 3 1084231 350132 96%
c i  0.57 178 40 0  66  924  789 10% 3 1084231 349963 96%
c i  0.58 178 39 0  66  931  795 10% 3 1084231 348119 95%
c i  0.59 178 39 0  66  940  801 10% 3 1084231 341576 94%
c 
c  seconds   reductions  redundant   irredundant
c          MB    restarts       trail        variables
c           level   conflicts       glue           remaining
c 
c }  0.65 178 39 0  68 1001  858 11% 3 1084231 341537 94%
c [  0.65 178  0 0  68 1001  858  0% 0 1084231 341537 94%
c O  0.71 178 514 0  68 1002  859 86% 1 1084231 341537 94%
c i  1.20 179 430 0  69 2107 1899 79% 11 1084231 341536 94%
... skipped 36756 lines ...
v 364484 -364485 364486 -364487 364488 -364489 364490 -364491 -364492 -364493
v 364494 -364495 364496 -364497 364498 -364499 364500 -364501 364502 -364503
v 364504 -364505 364506 -364507 -364508 -364509 -364510 -364511 -364512
v -364513 -364514 -364515 -364516 364517 364518 -364519 364520 -364521 364522
v 364523 -364524 364525 364526 -364527 -364528 364529 -364530 -364531 364532
v -364533 364534 364535 -364536 -364537 364538 -364539 364540 -364541 -364542
v 364543 -364544 364545 -364546 -364547 -364548 -364549 -364550 -364551
v -364552 -364553 -364554 -364555 -364556 -364557 364558 -364559 364560
v -364561 364562 -364563 364564 -364565 364566 -364567 364568 -364569 364570
v -364571 364572 -364573 -364574 -364575 -364576 -364577 -364578 -364579
v -364580 -364581 364582 364583 -364584 364585 -364586 364587 364588 -364589
v 364590 -364591 364592 -364593 -364594 364595 -364596 364597 364598 -364599
v 364600 -364601 364602 -364603 364604 -364605 -364606 364607 -364608 -364609
v 364610 -364611 364612 -364613 -364614 -364615 -364616 -364617 -364618
v -364619 -364620 -364621 -364622 -364623 -364624 364625 -364626 364627
v -364628 364629 -364630 364631 -364632 364633 -364634 364635 -364636 364637
v -364638 364639 -364640 -364641 -364642 -364643 -364644 -364645 -364646
v -364647 -364648 364649 -364650 364651 -364652 364653 -364654 364655 -364656
v 364657 -364658 -364659 364660 -364661 364662 -364663 364664 -364665 364666
v -364667 364668 -364669 -364670 364671 364672 -364673 -364674 -364675 364676
v -364677 -364678 -364679 -364680 -364681 -364682 -364683 -364684 -364685
v -364686 -364687 -364688 364689 -364690 364691 -364692 364693 -364694 364695
v -364696 364697 -364698 364699 -364700 364701 364702 -364703 -364704 364705
v -364706 -364707 364708 -364709 364710 364711 -364712 364713 -364714 -364715
v 364716 364717 -364718 364719 -364720 -364721 364722 -364723 -364724 364725
v 364726 -364727 364728 -364729 -364730 364731 -364732 -364733 364734 364735
v -364736 -364737 364738 -364739 -364740 -364741 364742 -364743 364744 -364745
v -364746 364747 364748 -364749 -364750 -364751 -364752 364753 364754 364755
v -364756 364757 -364758 364759 -364760 364761 -364762 364763 -364764 364765
v -364766 -364767 -364768 364769 -364770 -364771 364772 -364773 364774 364775
v -364776 364777 -364778 364779 -364780 364781 -364782 364783 364784 -364785
v 364786 -364787 364788 -364789 364790 -364791 -364792 -364793 364794 -364795
v 364796 -364797 364798 -364799 364800 -364801 364802 -364803 -364804 364805
v -364806 -364807 -364808 -364809 -364810 -364811 -364812 -364813 -364814
v -364815 -364816 -364817 -364818 364819 -364820 364821 -364822 -364823 364824
v -364825 -364826 364827 -364828 364829 -364830 364831 -364832 364833 -364834
v -364835 -364836 -364837 -364838 -364839 -364840 -364841 -364842 -364843
v 364844 -364845 364846 -364847 364848 -364849 364850 -364851 364852 -364853
v 364854 -364855 -364856 364857 -364858 -364859 -364860 -364861 -364862 364863
v 364864 364865 -364866 364867 -364868 364869 -364870 364871 -364872 364873
v -364874 -364875 -364876 364877 -364878 364879 -364880 364881 364882 -364883
v -364884 364885 -364886 364887 -364888 364889 -364890 364891 364892 -364893
v 364894 -364895 364896 -364897 364898 -364899 -364900 -364901 364902 -364903
v 364904 -364905 364906 -364907 364908 -364909 364910 -364911 -364912 364913
v -364914 -364915 364916 -364917 364918 -364919 364920 -364921 364922 -364923
v 364924 -364925 -364926 -364927 364928 -364929 -364930 364931 -364932 364933
v -364934 364935 -364936 364937 -364938 364939 -364940 364941 -364942 364943
v 364944 -364945 364946 -364947 364948 -364949 364950 -364951 -364952 -364953
v 364954 -364955 364956 -364957 364958 -364959 364960 -364961 364962 -364963
v -364964 364965 -364966 -364967 364968 -364969 0
c 
c --- [ run-time profiling ] -------------------------------------------------
c 
c process time taken by individual solving procedures
c (percentage relative to process time for solving)
c 
c      1114.25  100.00% search
c       725.77   65.14% unstable
c       384.97   34.55% stable
c         3.46    0.31% walk
c         0.17    0.02% parse
c         0.05    0.00% lucky
c         0.00    0.00% simplify
c   =================================
c      1114.25   99.98% solve
c 
c last line shows process time for solving
c (percentage relative to total process time)
c 
c --- [ statistics ] ---------------------------------------------------------
c 
c chronological:            181871        36.78 %  of conflicts
c conflicts:                494502       443.80    per second
c decisions:               2353368      2112.07    per second
c fixed:                     31083         8.52 %  of all variables
c learned:                  474013        95.86 %  per conflict
c learned_lits:           59214647       100.00 %  learned literals
c minimized:                     0         0.00 %  learned literals
c shrunken:               21773680        36.77 %  learned literals
c minishrunken:           13182939        22.26 %  learned literals
c otfs:                       1774         0.36 %  of conflict
c propagations:         8210891607         7.37 M  per second
c rephased:                     30     16483.40    interval
c restarts:                  41319        11.97    interval
c stabilizing:                   4        34.38 %  of conflicts
c subsumed:                  32170         2.07 %  of all clauses
c strengthened:               1743         0.11 %  of all clauses
c walked:                        8     61812.75    interval
c 
c seconds are measured in process time for solving
c 
c --- [ resources ] ----------------------------------------------------------
c 
c total process time since initialization:      1114.44    seconds
c total real time since initialization:         1118.11    seconds
c maximum resident set size of process:          429.32    MB
c 
c --- [ shutting down ] ------------------------------------------------------
c 
c exit 10
